% Instancia 3: 2 LINACs, 5 pacientes, 4 sesiones

m = 2;
p = 5;
s = 4;

disponible = [| 16, 12, 10, 14, 8, 12, 16, 12, 10, 12, 16, 12, 14, 16, 10, 12, 10, 12, 16, 14, 12
               | 8, 10, 12, 8, 10, 8, 10, 12, 10, 10, 8, 12, 10, 8, 12, 10, 12, 12, 8, 12, 10 |];

solicitud = [2, 3, 4, 5, 1];

duracion = [| 2, 4, 3, 2
            | 3, 5, 4, 3
            | 5, 6, 4, 5
            | 2, 3, 4, 2
            | 1, 2, 2, 3 |];

separacion = [| 2, 3, 2, 1
              | 3, 2, 1, 2
              | 2, 4, 2, 1
              | 1, 2, 3, 1
              | 1, 2, 2, 3 |];
